p cnf 12 19
-12 10 11  0  12 -10  0  12 -11  0
10 -7  0  10 -8  0  -10 7 8  0
11 8 9  0  -11 -8  0  -11 -9  0
7 -1 -2  0  -7 1  0  -7 2  0
8 3  0  8 4  0  -8 -3 -4  0
-9 5 6  0  9 -5  0  9 -6  0
12
